
Gurobi 7.5.2 (linux64) logging started Thu Mar 28 22:30:51 2019

Changed value of parameter LogFile to /home/aniket/python_scripts/Plasmids-Optimization/exp/2019-03-22__modified_iterative_MILP/output/sample_116/1.10.1/nplasmids_1/MILP/m.log
   Prev: gurobi.log  Default: 
Changed value of parameter TimeLimit to 2400.0
   Prev: 1e+100  Min: 0.0  Max: 1e+100  Default: 1e+100
Optimize a model with 3359 rows, 976 columns and 13914 nonzeros
Variable types: 259 continuous, 717 integer (373 binary)
Coefficient statistics:
  Matrix range     [2e-01, 1e+06]
  Objective range  [3e-04, 6e+05]
  Bounds range     [1e+00, 1e+00]
  RHS range        [8e-01, 1e+06]
Presolve removed 2700 rows and 605 columns
Presolve time: 0.02s
Presolved: 659 rows, 371 columns, 2181 nonzeros
Variable types: 79 continuous, 292 integer (214 binary)
Found heuristic solution: objective -361350.5349

Root relaxation: objective -1.240178e+06, 479 iterations, 0.01 seconds

    Nodes    |    Current Node    |     Objective Bounds      |     Work
 Expl Unexpl |  Obj  Depth IntInf | Incumbent    BestBd   Gap | It/Node Time

     0     0 -1240177.8    0   76 -361350.53 -1240177.8   243%     -    0s
     0     0 -1231944.9    0   23 -361350.53 -1231944.9   241%     -    0s
H    0     0                    -529490.3866 -1231944.9   133%     -    0s
     0     0 -1230947.5    0   13 -529490.39 -1230947.5   132%     -    0s
     0     0 -1230747.5    0   21 -529490.39 -1230747.5   132%     -    0s
H    0     0                    -543994.9060 -1230747.5   126%     -    0s
     0     0 -1230747.3    0   17 -543994.91 -1230747.3   126%     -    0s
     0     0 -1230740.6    0    2 -543994.91 -1230740.6   126%     -    0s
H    0     0                    -1211110.723 -1230740.6  1.62%     -    0s
     0     0 -1230735.0    0    2 -1211110.7 -1230735.0  1.62%     -    0s
H    0     0                    -1211111.450 -1230735.0  1.62%     -    0s
*    0     0               0    -1230728.770 -1230728.8  0.00%     -    0s

Explored 1 nodes (741 simplex iterations) in 0.07 seconds
Thread count was 4 (of 4 available processors)

Solution count 6: -1.23073e+06 -1.21111e+06 -1.21111e+06 ... -361351

Optimal solution found (tolerance 1.00e-04)
Best objective -1.230728770113e+06, best bound -1.230728770113e+06, gap 0.0000%
Optimize a model with 3360 rows, 976 columns and 13915 nonzeros
Variable types: 259 continuous, 717 integer (373 binary)
Coefficient statistics:
  Matrix range     [2e-01, 1e+06]
  Objective range  [3e-04, 6e+05]
  Bounds range     [1e+00, 1e+00]
  RHS range        [8e-01, 1e+06]

MIP start did not produce a new incumbent solution
MIP start violates constraint circular by 1.000000000

Presolve removed 2706 rows and 608 columns
Presolve time: 0.02s
Presolved: 654 rows, 368 columns, 2169 nonzeros
Variable types: 78 continuous, 290 integer (213 binary)
Found heuristic solution: objective -306047.6074

Root relaxation: objective -1.053787e+06, 456 iterations, 0.01 seconds

    Nodes    |    Current Node    |     Objective Bounds      |     Work
 Expl Unexpl |  Obj  Depth IntInf | Incumbent    BestBd   Gap | It/Node Time

     0     0 -1053786.7    0   79 -306047.61 -1053786.7   244%     -    0s
     0     0 -1044330.1    0   13 -306047.61 -1044330.1   241%     -    0s
H    0     0                    -1024680.055 -1044330.1  1.92%     -    0s
     0     0 -1044311.3    0    2 -1024680.1 -1044311.3  1.92%     -    0s
H    0     0                    -1024682.441 -1044311.3  1.92%     -    0s
*    0     0               0    -1044293.390 -1044293.4  0.00%     -    0s

Explored 1 nodes (695 simplex iterations) in 0.06 seconds
Thread count was 4 (of 4 available processors)

Solution count 4: -1.04429e+06 -1.02468e+06 -1.02468e+06 -306048 

Optimal solution found (tolerance 1.00e-04)
Best objective -1.044293390032e+06, best bound -1.044293390032e+06, gap 0.0000%
Optimize a model with 3361 rows, 976 columns and 13916 nonzeros
Variable types: 259 continuous, 717 integer (373 binary)
Coefficient statistics:
  Matrix range     [2e-01, 1e+06]
  Objective range  [3e-04, 6e+05]
  Bounds range     [1e+00, 1e+00]
  RHS range        [8e-01, 1e+06]

MIP start did not produce a new incumbent solution
MIP start violates constraint circular by 1.000000000

Presolve removed 2723 rows and 611 columns
Presolve time: 0.03s
Presolved: 638 rows, 365 columns, 2116 nonzeros
Variable types: 77 continuous, 288 integer (212 binary)
Found heuristic solution: objective -10157.41576

Root relaxation: objective -3.643283e+04, 460 iterations, 0.01 seconds

    Nodes    |    Current Node    |     Objective Bounds      |     Work
 Expl Unexpl |  Obj  Depth IntInf | Incumbent    BestBd   Gap | It/Node Time

     0     0 -36432.828    0   96 -10157.416 -36432.828   259%     -    0s
     0     0 -20629.345    0   26 -10157.416 -20629.345   103%     -    0s
     0     0 -20560.567    0    6 -10157.416 -20560.567   102%     -    0s
     0     0 -20518.968    0    2 -10157.416 -20518.968   102%     -    0s
     0     0 -20515.605    0   13 -10157.416 -20515.605   102%     -    0s
     0     0 -20510.439    0   17 -10157.416 -20510.439   102%     -    0s
     0     0 -20510.439    0   17 -10157.416 -20510.439   102%     -    0s
H    0     0                    -20504.03983 -20510.439  0.03%     -    0s

Cutting planes:
  Gomory: 4
  Cover: 53
  Implied bound: 13
  Clique: 14
  MIR: 27
  Flow cover: 49
  Zero half: 1

Explored 1 nodes (656 simplex iterations) in 0.07 seconds
Thread count was 4 (of 4 available processors)

Solution count 2: -20504 -10157.4 

Optimal solution found (tolerance 1.00e-04)
Best objective -2.050403983168e+04, best bound -2.050403983168e+04, gap 0.0000%

Gurobi 7.5.2 (linux64) logging started Thu Mar 28 22:30:51 2019

Changed value of parameter LogFile to /home/aniket/python_scripts/Plasmids-Optimization/exp/2019-03-22__modified_iterative_MILP/output/sample_116/1.10.1/nplasmids_1/MILP/m.log
   Prev: gurobi.log  Default: 
Changed value of parameter TimeLimit to 2400.0
   Prev: 1e+100  Min: 0.0  Max: 1e+100  Default: 1e+100
Optimize a model with 2994 rows, 870 columns and 11700 nonzeros
Variable types: 232 continuous, 638 integer (330 binary)
Coefficient statistics:
  Matrix range     [2e-01, 1e+06]
  Objective range  [3e-04, 3e+05]
  Bounds range     [1e+00, 1e+00]
  RHS range        [8e-01, 1e+06]
Presolve removed 2350 rows and 507 columns
Presolve time: 0.01s
Presolved: 644 rows, 363 columns, 2134 nonzeros
Variable types: 78 continuous, 285 integer (208 binary)
Found heuristic solution: objective -57416.08688

Root relaxation: objective -1.223682e+06, 456 iterations, 0.01 seconds

    Nodes    |    Current Node    |     Objective Bounds      |     Work
 Expl Unexpl |  Obj  Depth IntInf | Incumbent    BestBd   Gap | It/Node Time

     0     0 -1223681.9    0   75 -57416.087 -1223681.9  2031%     -    0s
     0     0 -1211287.5    0    8 -57416.087 -1211287.5  2010%     -    0s
H    0     0                    -1211117.095 -1211287.5  0.01%     -    0s
H    0     0                    -1211117.615 -1211287.5  0.01%     -    0s
     0     0 -1211129.5    0    2 -1211117.6 -1211129.5  0.00%     -    0s

Cutting planes:
  Gomory: 7
  Cover: 45
  Implied bound: 1
  Clique: 8
  MIR: 11
  Flow cover: 35
  Zero half: 4

Explored 1 nodes (579 simplex iterations) in 0.04 seconds
Thread count was 4 (of 4 available processors)

Solution count 3: -1.21112e+06 -1.21112e+06 -57416.1 

Optimal solution found (tolerance 1.00e-04)
Best objective -1.211117615113e+06, best bound -1.211129463121e+06, gap 0.0010%
Optimize a model with 2995 rows, 870 columns and 11701 nonzeros
Variable types: 232 continuous, 638 integer (330 binary)
Coefficient statistics:
  Matrix range     [2e-01, 1e+06]
  Objective range  [3e-04, 3e+05]
  Bounds range     [1e+00, 1e+00]
  RHS range        [8e-01, 1e+06]

MIP start did not produce a new incumbent solution
MIP start violates constraint circular by 1.000000000

Presolve removed 2356 rows and 510 columns
Presolve time: 0.02s
Presolved: 639 rows, 360 columns, 2115 nonzeros
Variable types: 77 continuous, 283 integer (207 binary)
Found heuristic solution: objective -57416.08688

Root relaxation: objective -5.654305e+05, 200 iterations, 0.00 seconds

    Nodes    |    Current Node    |     Objective Bounds      |     Work
 Expl Unexpl |  Obj  Depth IntInf | Incumbent    BestBd   Gap | It/Node Time

*    0     0               0    -565430.4622 -565430.46  0.00%     -    0s

Explored 0 nodes (200 simplex iterations) in 0.03 seconds
Thread count was 4 (of 4 available processors)

Solution count 2: -565430 -57416.1 

Optimal solution found (tolerance 1.00e-04)
Best objective -5.654304622447e+05, best bound -5.654304622447e+05, gap 0.0000%
Optimize a model with 2996 rows, 870 columns and 11702 nonzeros
Variable types: 232 continuous, 638 integer (330 binary)
Coefficient statistics:
  Matrix range     [2e-01, 1e+06]
  Objective range  [3e-04, 3e+05]
  Bounds range     [1e+00, 1e+00]
  RHS range        [8e-01, 1e+06]

MIP start did not produce a new incumbent solution
MIP start violates constraint circular by 1.000000000

Presolve removed 2456 rows and 538 columns
Presolve time: 0.01s
Presolved: 540 rows, 332 columns, 1723 nonzeros
Variable types: 72 continuous, 260 integer (188 binary)

Root relaxation: objective -1.232252e+04, 300 iterations, 0.00 seconds

    Nodes    |    Current Node    |     Objective Bounds      |     Work
 Expl Unexpl |  Obj  Depth IntInf | Incumbent    BestBd   Gap | It/Node Time

     0     0 -12322.525    0   26          - -12322.525      -     -    0s
     0     0 -12237.067    0   12          - -12237.067      -     -    0s
     0     0 -12227.866    0   12          - -12227.866      -     -    0s
     0     0 -12227.361    0   12          - -12227.361      -     -    0s
     0     0 -12213.171    0    6          - -12213.171      -     -    0s
     0     0 -12210.214    0    2          - -12210.214      -     -    0s
H    0     0                    -12101.08427 -12210.214  0.90%     -    0s
     0     0 -12208.483    0    2 -12101.084 -12208.483  0.89%     -    0s
H    0     0                    -12103.41404 -12208.483  0.87%     -    0s
     0     0 -12174.929    0   40 -12103.414 -12174.929  0.59%     -    0s
     0     0 -12162.329    0    6 -12103.414 -12162.329  0.49%     -    0s
*    0     0               0    -12110.66136 -12110.661  0.00%     -    0s

Cutting planes:
  Gomory: 2

Explored 1 nodes (732 simplex iterations) in 0.06 seconds
Thread count was 4 (of 4 available processors)

Solution count 3: -12110.7 -12103.4 -12101.1 

Optimal solution found (tolerance 1.00e-04)
Best objective -1.211066136286e+04, best bound -1.211066136286e+04, gap 0.0000%
Optimize a model with 2997 rows, 870 columns and 11704 nonzeros
Variable types: 232 continuous, 638 integer (330 binary)
Coefficient statistics:
  Matrix range     [2e-01, 1e+06]
  Objective range  [3e-04, 3e+05]
  Bounds range     [1e+00, 1e+00]
  RHS range        [8e-01, 1e+06]

MIP start did not produce a new incumbent solution
MIP start violates constraint circular by 1.000000000

Presolve removed 2458 rows and 538 columns
Presolve time: 0.01s
Presolved: 539 rows, 332 columns, 1717 nonzeros
Variable types: 72 continuous, 260 integer (188 binary)

Root relaxation: objective -1.232184e+04, 341 iterations, 0.00 seconds

    Nodes    |    Current Node    |     Objective Bounds      |     Work
 Expl Unexpl |  Obj  Depth IntInf | Incumbent    BestBd   Gap | It/Node Time

     0     0 -12321.838    0   26          - -12321.838      -     -    0s
     0     0 -12233.303    0   12          - -12233.303      -     -    0s
     0     0 -12223.313    0   10          - -12223.313      -     -    0s
     0     0 -12222.808    0   10          - -12222.808      -     -    0s
     0     0 -12208.608    0    6          - -12208.608      -     -    0s
H    0     0                    -12093.86747 -12208.608  0.95%     -    0s
     0     0 -12205.650    0    2 -12093.867 -12205.650  0.92%     -    0s
H    0     0                    -12098.05217 -12205.650  0.89%     -    0s
     0     0 -12173.218    0   41 -12098.052 -12173.218  0.62%     -    0s
     0     0 -12160.951    0   19 -12098.052 -12160.951  0.52%     -    0s
     0     0 -12160.005    0   12 -12098.052 -12160.005  0.51%     -    0s
*    0     0               0    -12106.09655 -12106.097  0.00%     -    0s

Cutting planes:
  Gomory: 2
  Cover: 1
  Flow cover: 1

Explored 1 nodes (788 simplex iterations) in 0.07 seconds
Thread count was 4 (of 4 available processors)

Solution count 3: -12106.1 -12098.1 -12093.9 

Optimal solution found (tolerance 1.00e-04)
Best objective -1.210609654798e+04, best bound -1.210609654798e+04, gap 0.0000%

Gurobi 7.5.2 (linux64) logging started Thu Mar 28 22:30:52 2019

Changed value of parameter LogFile to /home/aniket/python_scripts/Plasmids-Optimization/exp/2019-03-22__modified_iterative_MILP/output/sample_116/1.10.1/nplasmids_1/MILP/m.log
   Prev: gurobi.log  Default: 
Changed value of parameter TimeLimit to 2400.0
   Prev: 1e+100  Min: 0.0  Max: 1e+100  Default: 1e+100
Optimize a model with 2953 rows, 858 columns and 11461 nonzeros
Variable types: 229 continuous, 629 integer (325 binary)
Coefficient statistics:
  Matrix range     [2e-01, 1e+06]
  Objective range  [3e-04, 3e+05]
  Bounds range     [1e+00, 1e+00]
  RHS range        [2e-01, 1e+06]
Presolve removed 2321 rows and 502 columns
Presolve time: 0.02s
Presolved: 632 rows, 356 columns, 2089 nonzeros
Variable types: 77 continuous, 279 integer (203 binary)
Found heuristic solution: objective -57416.08688

Root relaxation: objective -1.216929e+06, 413 iterations, 0.00 seconds

    Nodes    |    Current Node    |     Objective Bounds      |     Work
 Expl Unexpl |  Obj  Depth IntInf | Incumbent    BestBd   Gap | It/Node Time

     0     0 -1216928.7    0   65 -57416.087 -1216928.7  2019%     -    0s
     0     0 -1211232.4    0   12 -57416.087 -1211232.4  2010%     -    0s
H    0     0                    -1211117.615 -1211232.4  0.01%     -    0s

Cutting planes:
  Gomory: 3
  Cover: 45
  Implied bound: 1
  Clique: 8
  MIR: 10
  Flow cover: 31
  Zero half: 3

Explored 1 nodes (522 simplex iterations) in 0.04 seconds
Thread count was 4 (of 4 available processors)

Solution count 2: -1.21112e+06 -57416.1 

Optimal solution found (tolerance 1.00e-04)
Best objective -1.211117615113e+06, best bound -1.211232406336e+06, gap 0.0095%
Optimize a model with 2954 rows, 858 columns and 11462 nonzeros
Variable types: 229 continuous, 629 integer (325 binary)
Coefficient statistics:
  Matrix range     [2e-01, 1e+06]
  Objective range  [3e-04, 3e+05]
  Bounds range     [1e+00, 1e+00]
  RHS range        [2e-01, 1e+06]

MIP start did not produce a new incumbent solution
MIP start violates constraint circular by 1.000000000

Presolve removed 2327 rows and 505 columns
Presolve time: 0.02s
Presolved: 627 rows, 353 columns, 2078 nonzeros
Variable types: 76 continuous, 277 integer (202 binary)
Found heuristic solution: objective -57416.08688

Root relaxation: objective -5.654305e+05, 210 iterations, 0.00 seconds

    Nodes    |    Current Node    |     Objective Bounds      |     Work
 Expl Unexpl |  Obj  Depth IntInf | Incumbent    BestBd   Gap | It/Node Time

*    0     0               0    -565430.4622 -565430.46  0.00%     -    0s

Explored 0 nodes (210 simplex iterations) in 0.03 seconds
Thread count was 4 (of 4 available processors)

Solution count 2: -565430 -57416.1 

Optimal solution found (tolerance 1.00e-04)
Best objective -5.654304622447e+05, best bound -5.654304622447e+05, gap 0.0000%
Optimize a model with 2955 rows, 858 columns and 11463 nonzeros
Variable types: 229 continuous, 629 integer (325 binary)
Coefficient statistics:
  Matrix range     [2e-01, 1e+06]
  Objective range  [3e-04, 3e+05]
  Bounds range     [1e+00, 1e+00]
  RHS range        [2e-01, 1e+06]

MIP start did not produce a new incumbent solution
MIP start violates constraint circular by 1.000000000

Presolve removed 2513 rows and 581 columns
Presolve time: 0.01s
Presolved: 442 rows, 277 columns, 1383 nonzeros
Variable types: 61 continuous, 216 integer (215 binary)
Found heuristic solution: objective -6086.157799

Root relaxation: objective -6.285561e+03, 222 iterations, 0.00 seconds

    Nodes    |    Current Node    |     Objective Bounds      |     Work
 Expl Unexpl |  Obj  Depth IntInf | Incumbent    BestBd   Gap | It/Node Time

     0     0 -6285.5615    0   22 -6086.1578 -6285.5615  3.28%     -    0s
     0     0 -6229.4236    0    4 -6086.1578 -6229.4236  2.35%     -    0s
     0     0 -6221.0796    0    4 -6086.1578 -6221.0796  2.22%     -    0s
     0     0 -6157.4556    0    2 -6086.1578 -6157.4556  1.17%     -    0s
     0     0 -6153.8146    0    2 -6086.1578 -6153.8146  1.11%     -    0s
     0     0 -6148.9055    0    2 -6086.1578 -6148.9055  1.03%     -    0s
     0     0 -6148.7423    0    2 -6086.1578 -6148.7423  1.03%     -    0s
*    0     0               0    -6138.971174 -6138.9712  0.00%     -    0s

Explored 1 nodes (466 simplex iterations) in 0.04 seconds
Thread count was 4 (of 4 available processors)

Solution count 3: -6138.97 -6086.16 -6086.16 

Optimal solution found (tolerance 1.00e-04)
Best objective -6.138971173928e+03, best bound -6.138971173928e+03, gap 0.0000%
Optimize a model with 2956 rows, 858 columns and 11465 nonzeros
Variable types: 229 continuous, 629 integer (325 binary)
Coefficient statistics:
  Matrix range     [2e-01, 1e+06]
  Objective range  [3e-04, 3e+05]
  Bounds range     [1e+00, 1e+00]
  RHS range        [2e-01, 1e+06]

MIP start did not produce a new incumbent solution
MIP start violates constraint circular by 1.000000000

Presolve removed 2515 rows and 581 columns
Presolve time: 0.01s
Presolved: 441 rows, 277 columns, 1378 nonzeros
Variable types: 61 continuous, 216 integer (215 binary)
Found heuristic solution: objective -6086.157799

Root relaxation: objective -6.280997e+03, 223 iterations, 0.00 seconds

    Nodes    |    Current Node    |     Objective Bounds      |     Work
 Expl Unexpl |  Obj  Depth IntInf | Incumbent    BestBd   Gap | It/Node Time

     0     0 -6280.9966    0   22 -6086.1578 -6280.9966  3.20%     -    0s
     0     0 -6224.8588    0    4 -6086.1578 -6224.8588  2.28%     -    0s
     0     0 -6216.5148    0    4 -6086.1578 -6216.5148  2.14%     -    0s
     0     0 -6152.8908    0    2 -6086.1578 -6152.8908  1.10%     -    0s
H    0     0                    -6134.406359 -6152.8908  0.30%     -    0s
     0     0     cutoff    0      -6134.4064 -6134.4064  0.00%     -    0s

Cutting planes:
  Gomory: 7
  Cover: 19
  Clique: 13
  Flow cover: 5

Explored 1 nodes (263 simplex iterations) in 0.03 seconds
Thread count was 4 (of 4 available processors)

Solution count 2: -6134.41 -6086.16 

Optimal solution found (tolerance 1.00e-04)
Best objective -6.134406359044e+03, best bound -6.134406359044e+03, gap 0.0000%

Gurobi 7.5.2 (linux64) logging started Thu Mar 28 22:30:52 2019

Changed value of parameter LogFile to /home/aniket/python_scripts/Plasmids-Optimization/exp/2019-03-22__modified_iterative_MILP/output/sample_116/1.10.1/nplasmids_1/MILP/m.log
   Prev: gurobi.log  Default: 
Changed value of parameter TimeLimit to 2400.0
   Prev: 1e+100  Min: 0.0  Max: 1e+100  Default: 1e+100
Optimize a model with 2472 rows, 717 columns and 8812 nonzeros
Variable types: 193 continuous, 524 integer (268 binary)
Coefficient statistics:
  Matrix range     [1e-01, 1e+06]
  Objective range  [3e-03, 3e+05]
  Bounds range     [1e+00, 1e+00]
  RHS range        [1e-01, 1e+06]
Presolve removed 1966 rows and 436 columns
Presolve time: 0.01s
Presolved: 506 rows, 281 columns, 1560 nonzeros
Variable types: 63 continuous, 218 integer (155 binary)
Found heuristic solution: objective -1211087.299

Root relaxation: objective -1.211137e+06, 127 iterations, 0.00 seconds

    Nodes    |    Current Node    |     Objective Bounds      |     Work
 Expl Unexpl |  Obj  Depth IntInf | Incumbent    BestBd   Gap | It/Node Time

     0     0 -1211136.9    0    8 -1211087.3 -1211136.9  0.00%     -    0s

Explored 1 nodes (135 simplex iterations) in 0.02 seconds
Thread count was 4 (of 4 available processors)

Solution count 1: -1.21109e+06 

Optimal solution found (tolerance 1.00e-04)
Best objective -1.211087299201e+06, best bound -1.211136921478e+06, gap 0.0041%
Optimize a model with 2473 rows, 717 columns and 8813 nonzeros
Variable types: 193 continuous, 524 integer (268 binary)
Coefficient statistics:
  Matrix range     [1e-01, 1e+06]
  Objective range  [3e-03, 3e+05]
  Bounds range     [1e+00, 1e+00]
  RHS range        [1e-01, 1e+06]

MIP start did not produce a new incumbent solution
MIP start violates constraint circular by 1.000000000

Presolve removed 2003 rows and 442 columns
Presolve time: 0.01s
Presolved: 470 rows, 275 columns, 1444 nonzeros
Variable types: 61 continuous, 214 integer (153 binary)
Found heuristic solution: objective -1024651.919
Found heuristic solution: objective -1024680.055

Root relaxation: objective -1.024702e+06, 94 iterations, 0.00 seconds

    Nodes    |    Current Node    |     Objective Bounds      |     Work
 Expl Unexpl |  Obj  Depth IntInf | Incumbent    BestBd   Gap | It/Node Time

     0     0 -1024701.5    0    6 -1024680.1 -1024701.5  0.00%     -    0s

Explored 1 nodes (97 simplex iterations) in 0.01 seconds
Thread count was 4 (of 4 available processors)

Solution count 2: -1.02468e+06 -1.02465e+06 

Optimal solution found (tolerance 1.00e-04)
Best objective -1.024680054888e+06, best bound -1.024701549452e+06, gap 0.0021%
Optimize a model with 2474 rows, 717 columns and 8814 nonzeros
Variable types: 193 continuous, 524 integer (268 binary)
Coefficient statistics:
  Matrix range     [1e-01, 1e+06]
  Objective range  [3e-03, 3e+05]
  Bounds range     [1e+00, 1e+00]
  RHS range        [1e-01, 1e+06]

MIP start did not produce a new incumbent solution
MIP start violates constraint circular by 1.000000000

Presolve removed 1189 rows and 149 columns
Presolve time: 0.00s

Explored 0 nodes (0 simplex iterations) in 0.00 seconds
Thread count was 1 (of 4 available processors)

Solution count 0

Model is infeasible or unbounded
Best objective -, best bound -, gap -
Presolve removed 1189 rows and 149 columns
Presolve time: 0.00s

Explored 0 nodes (0 simplex iterations) in 0.00 seconds
Thread count was 1 (of 4 available processors)

Solution count 0

Model is infeasible
Best objective -, best bound -, gap -

Computing Irreducible Inconsistent Subsystem (IIS)...

      Constraints           Bounds       Runtime
     Min       Max       Min      Max
------------------------------------------------
        0     2096         0      449         0s
       76       76         0        0         2s

IIS computed: 76 constraints, 0 bounds
IIS runtime: 2.00 seconds
Warning: linear constraint 0 and linear constraint 1 have the same name "extr_ubd"
